0 121 
1 121 
2 124 
3 125 
4 125 
5 124 
6 122 
7 122 
8 122 
9 124 
10 123 
11 126 
12 122 
13 119 
14 116 
15 115 
16 114 
17 114 
18 117 
19 118 
20 119 
21 118 
22 116 
23 114 
24 113 
25 111 
26 109 
27 115 
28 111 
29 110 
30 112 
31 112 
32 112 
33 108 
34 108 
35 108 
36 105 
37 101 
38 99 
39 98 
40 96 
41 98 
42 95 
43 95 
44 97 
45 96 
46 94 
47 90 
48 87 
49 89 
50 87 
51 88 
52 88 
53 86 
54 82 
55 79 
56 78 
57 75 
58 70 
59 68 
60 68 
61 66 
62 66 
63 66 
64 66 
65 66 
66 65 
67 64 
68 62 
69 61 
70 60 
71 58 
72 57 
73 55 
74 55 
75 54 
76 53 
77 55 
78 55 
79 53 
80 51 
81 50 
82 49 
83 51 
84 51 
85 49 
86 48 
87 46 
88 46 
89 45 
90 44 
91 43 
92 41 
93 42 
94 44 
95 43 
96 42 
97 40 
98 38 
99 38 
100 37 
101 35 
102 34 
103 32 
104 31 
105 31 
106 31 
107 29 
108 30 
109 28 
110 27 
111 26 
112 27 
113 27 
114 25 
115 24 
116 22 
117 20 
118 18 
119 18 
120 16 
121 15 
122 12 
123 12 
124 12 
125 12 
126 11 
127 11 
128 10 
129 9 
130 8 
131 6 
132 5 
133 4 
134 3 
135 2 
136 2 
137 2 
138 0 
139 0 

